hw2/hw2_2.dat
set J := j1, j2, j3, j4, j5, j6, j7, j8;

param profit :=
j1 2.1
j2 0.5
j3 3.0
j4 2.0
j5 1.0
j6 1.5
j7 0.6
j8 1.8;

param cpu :=
j1 200
j2 150 
j3 400
j4 450 
j5 300
j6 150
j7 200
j8 600;

param personDays :=
j1 550
j2 400
j3 300
j4 350
j5 450
j6 500
j7 350
j8 200;
