hw2/hw2_2.out
x [*] :=
j1  1
j2  0
j3  1
j4  0
j5  0
j6  1
j7  1
j8  0
;

y = 7
Total_Profit = 7.2

